27 41 59 42 67 93 86 34 71 85 76 32 82 45 89 51 50 84 64 18 18 31 98 13 42 
40 52 54 90 61 44 33 43 92 74 57 98 57 12 28 41 38 49 34 80 51 68 11 52 60 
21 39 13 38 17 69 64 85 46 27 75 25 48 28 73 92 70 79 26 77 25 30 31 84 57 
88 57 26 74 61 70 20 22 44 97 64 47 44 57 34 74 46 80 67 37 22 71 10 13 94 
659
52 40 18 66 69 78 52 38 58 95 54 55 24 38 88 81 62 23 94 44 76 62 29 77 34 
703
11 71 68 63 41 29 81 55 12 57 49 74 95 23 61 22 89 13 50 98 31 95 75 81 22 
683
